17	4	3
20	22	24	28	35	34	33	
0	0	0	0	0	3	4	6	2	8	8	3	2	3	4
6	5	3	4	7	10	6	5	7	6	9	1	17
2	1	2	10	5	9	2	10	3	3	1	3	5	6	7
9	3	4	7	7	6	5	10	2	3	9	2	14	17
8	2	8	3	10	1	3	4	8	6	10	2	11	17
25	10	5	1	7	4	8	4	10	10	1	2	16	17
100	9	1	1	7	8	9	7	2	6	2	3	8	9	12
50	1	2	10	7	1	4	4	10	7	6	1	17
25	1	4	6	2	1	2	1	10	3	3	1	10
75	10	2	7	5	9	4	5	3	2	10	2	15	17
50	1	2	2	8	2	5	8	6	5	7	2	13	17
150	9	1	2	9	6	2	6	2	3	1	1	17
5	7	10	4	4	4	3	5	7	3	1	1	15
3	2	3	3	4	3	4	3	3	3	6	1	17
1	8	5	2	8	6	1	9	1	4	10	1	17
7	2	1	9	4	1	5	5	8	1	9	1	17
0	0	0	0	0	5	7	1	1	9	3	0
